28 29
22
3 3 25 9
4 3 21 9
3 5 0 4
6 3 0 19
7 3 6 19
8 3 15 0
9 3 3 6
10 3 5 0
11 3 12 6
16 3 2 22
17 3 6 3
21 3 0 9
23 3 1 12
4 3 13 19
4 4 24 12
5 4 0 0
8 4 0 25
13 4 10 25
23 4 0 15
5 6 18 19
5 9 23 0
5 13 23 16
